n = 22;
budget = 250000;
groceries = [|70,70,130,136,973|100,125,100,142,1180|104,48,112,121,1929|21,168,168,90,3613|184,248,112,105,3228|216,9,234,182,3480|55,25,40,171,2216|36,198,30,179,1458|110,550,50,171,2877|104,144,40,71,2002|126,459,207,155,3528|117,306,243,190,923|36,360,126,82,1258|16,296,104,54,3747|90,162,306,174,1519|20,125,325,166,2122|35,224,315,77,1415|24,174,84,110,3099|45,216,684,198,3191|20,130,290,66,2328|56,248,416,86,1581|50,710,30,138,3653|];
requirements = [|1140,1380|6000,6000|1710,1860|];
offset = [|114,276|3000,3900|427,651|];
variety = 39;